\ Model Routes
\ LP format - for model browsing. Use MPS format to capture full model detail.
Maximize
  1240.528206194839 R{0,0} + 2298.979024458567 R{0,1}
   + 2298.979024458567 R{0,2} - 249.2301939667805 R{0,3}
   + 222.8649545650627 R{0,4} + 892.5014194710873 R{0,5}
   + 2131.005926882204 R{0,6} + 900.5821508380739 R{0,7}
   + 3154.807093868809 R{0,8} + 1278.488640895347 R{0,9}
   + 2562.546858987073 R{0,10} + 1621.41008681278 R{0,11}
   + 1325.260478998293 R{0,12} + 900.5821508380739 R{0,13}
   + 1507.714007831585 R{0,14} + 2267.776889391712 R{0,15}
   + 1675.495340249879 R{0,16} + 943.4477753098472 R{0,17}
   + 1239.116779760622 R{0,18} + 1318.676882487601 R{0,19}
   + 1104.713360596414 R{0,20} + 942.3911780213173 R{0,21}
   + 588.8344950519804 R{0,22} + 1351.45886813195 R{0,23}
   + 623.7308277748302 R{0,24} + 1061.173246896485 R{0,25}
   + 1418.959544792874 R{0,26} + 651.9306372012616 R{0,27}
   + 1305.233820151064 R{0,28} + 1207.595163223438 R{0,29}
   + 892.5797788830071 R{0,30} + 222.9433139769824 R{0,31}
   + 273.7539352527127 R{0,32} + 1126.355726138817 R{0,33}
   + 1080.305925106988 R{0,34} + 2577.124439278276 R{0,35}
   + 1107.625256341144 R{0,36} + 588.8344950519804 R{0,37}
   + 435.0195205392797 R{0,38} + 615.7858309708731 R{0,39}
   - 256.140831891889 R{1,0} + 41.44651618699046 R{1,1}
   + 468.947430945026 R{1,2} + 273.8868897173979 R{1,3}
   + 36.28946441881044 R{1,4} + 247.6971074248141 R{1,5}
   + 517.8793429346242 R{1,6} + 1202.304968680559 R{1,7}
   + 585.2964929090286 R{1,8} + 662.2442396255781 R{1,9}
   + 1465.840538932908 R{1,10} - 278.4443928850388 R{2,0}
   - 59.13410337035452 R{2,1} + 602.7748664658451 R{2,2}
   + 1100.505917706273 R{2,3} + 1127.126554447374 R{2,4}
   + 1005.777703503751 R{2,5} + 675.0053638221349 R{2,6}
   + 916.1855209384714 R{2,7} + 1121.446688672336 R{2,8}
   + 1026.467128894638 R{2,9} + 1046.528928271136 R{2,10}
   + 735.8721605570015 R{2,11} + 739.9080506286663 R{2,12}
   + 1005.777703503751 R{2,13} + 916.1789585751681 R{2,14}
   + 445.3720389974388 R{2,15} + 915.7501299288303 R{2,16}
   + 1090.369640218915 R{2,17} + 297.9582988050411 R{2,18}
   + 854.2487578921023 R{2,19} + 177.8426664283916 R{2,20}
   + 498.8661963649181 R{2,21} + 367.2540699363889 R{2,22}
   + 498.8661963649181 R{2,23} + 830.09361557288 R{2,24}
   + 594.1507212540391 R{2,25} + 164.8146250851926 R{2,26}
   + 208.9971902923185 R{2,27} - 260.2482995389823 R{3,0}
   + 156.637647602696 R{3,1} + 1746.039740450535 R{3,2}
   + 2107.042457720655 R{3,3} + 139.07933607738 R{3,4}
   + 2071.880803155034 R{3,5} + 1955.169659566821 R{3,6}
   + 256.1421096485681 R{3,7} + 236.5557456071854 R{3,8}
   + 1665.962521182089 R{3,9} + 2466.724066397358 R{3,10}
   + 2125.392218578032 R{3,11} + 2729.244036733275 R{3,12}
   + 1557.036731550478 R{3,13} + 2746.101786704733 R{3,14}
   + 1778.364684656667 R{3,15} + 1978.016955216974 R{3,16}
   + 3479.997952509397 R{3,17} + 247.808763435586 R{3,18}
   + 2820.68549793581 R{3,19} + 2019.938885853739 R{3,20}
   + 1832.090804635684 R{3,21} + 2327.92393425201 R{3,22}
   + 470.1064061304262 R{3,23} + 2508.825021198476 R{3,24}
   + 674.1400513348519 R{3,25} + 2555.422181635152 R{3,26}
   + 1916.509223326627 R{3,27} + 1142.267072087292 R{3,28}
   + 2757.494048793533 R{3,29} + 637.7364330155385 R{3,30}
   + 1596.850416760429 R{3,31} - 242.5208875955131 R{4,0}
   + 1066.379443184683 R{4,1} + 1576.196574514046 R{4,2}
   + 901.2613701587184 R{4,3} + 897.3573794668425 R{4,4}
   + 1100.966645887064 R{4,5} + 198.1487486150389 R{4,6}
   + 692.2259088615579 R{4,7} + 268.5351774382035 R{4,8}
   + 790.2059670761143 R{4,9} + 926.6049210864558 R{4,10}
   + 892.087875481408 R{4,11} + 905.3509560850571 R{4,12}
   + 845.5660099861436 R{4,13} + 1564.792675846752 R{4,14}
   + 1064.401607746196 R{4,15} + 1538.927788117353 R{4,16}
   + 1561.141983338795 R{4,17} + 2079.086906008454 R{4,18}
   + 838.789858904323 R{4,19} + 1459.845666708788 R{4,20}
   + 987.1148686796992 R{4,21} + 1064.401607746196 R{4,22}
   + 1214.440897958916 R{4,23} + 1016.285121400081 R{4,24}
   + 1107.522398885122 R{4,25} + 865.4655175804978 R{4,26}
   - 231.9775664337766 R{5,0} + 242.1080744790759 R{5,1}
   + 1358.300299535796 R{5,2} + 1358.300299535796 R{5,3}
   + 786.2664293550838 R{5,4} + 2758.731083094015 R{5,5}
   + 1798.492332189948 R{5,6} + 1662.43271332117 R{5,7}
   + 2729.605560015076 R{5,8} + 227.0083610254147 R{5,9}
   + 1933.563503805784 R{5,10} + 2134.205844034866 R{5,11}
   + 1539.323079792479 R{5,12} + 1158.820173593147 R{5,13}
   + 1166.072022427139 R{5,14} + 1329.052102495186 R{5,15}
   + 883.6636610309863 R{5,16} + 2525.248754655116 R{5,17}
   + 1703.61411974259 R{5,18} + 2885.16532398964 R{5,19}
   + 1349.207961832569 R{5,20} + 1253.079037680699 R{5,21}
   + 1499.816107117009 R{5,22} + 1700.659079807843 R{5,23}
   + 2242.989303110084 R{5,24} + 967.2520305356538 R{5,25}
   + 1111.601205228667 R{5,26} + 937.4753735237439 R{5,27}
   + 800.6493859473659 R{5,28} + 2566.622057544382 R{5,29}
   + 877.9179170908942 R{5,30} + 707.7287048309272 R{5,31}
   + 951.9380142811988 R{5,32} + 2125.150985339523 R{5,33}
   + 2071.351430060364 R{5,34} + 1157.902210866056 R{5,35}
   + 1438.940270979205 R{5,36} + 835.2774503512176 R{5,37}
   + 2996.916745654328 R{5,38} + 1358.085595716165 R{5,39}
   - 231.1436095783099 R{6,0} + 1381.891878324568 R{6,1}
   + 2138.911397941406 R{6,2} + 2560.066428814385 R{6,3}
   + 1363.449606953355 R{6,4} + 1567.810226855571 R{6,5}
   + 1354.549206519672 R{6,6} + 2462.680054511648 R{6,7}
   + 2323.32773146478 R{6,8} + 2109.220412945324 R{6,9}
   + 1299.063351889456 R{6,10} + 1438.935330631598 R{6,11}
   + 1649.249763342927 R{6,12} + 1464.395008813878 R{6,13}
   + 2357.055646803286 R{6,14} + 1506.127581131167 R{6,15}
   + 1791.428829777351 R{6,16} + 2292.156552512308 R{6,17}
   + 2177.72468762169 R{6,18} + 2186.849441369394 R{6,19}
   + 2018.009625908711 R{6,20} + 993.0375103541746 R{6,21}
   + 1622.716885327265 R{6,22} + 1495.741663515536 R{6,23}
   + 1749.50846018093 R{6,24} + 1089.30920492936 R{6,25}
   + 2109.56082195469 R{6,26} + 1271.011906330202 R{6,27}
   + 1750.038860586787 R{6,28} + 1023.626326105596 R{6,29}
   + 2600.032386252485 R{6,30} + 990.5359972156305 R{6,31}
   + 1393.193103374222 R{6,32} + 1349.743873393198 R{6,33}
   + 2790.751959066409 R{6,34} + 2183.987120342746 R{6,35}
Subject To
 R00: R{0,0} <= 1
 R01: R{0,1} <= 1
 R02: R{0,2} <= 1
 R03: R{0,3} <= 1
 R04: R{0,4} <= 1
 R05: R{0,5} <= 1
 R06: R{0,6} <= 1
 R07: R{0,7} <= 1
 R08: R{0,8} <= 1
 R09: R{0,9} <= 1
 R010: R{0,10} <= 1
 R011: R{0,11} <= 1
 R012: R{0,12} <= 1
 R013: R{0,13} <= 1
 R014: R{0,14} <= 1
 R015: R{0,15} <= 1
 R016: R{0,16} <= 1
 R017: R{0,17} <= 1
 R018: R{0,18} <= 1
 R019: R{0,19} <= 1
 R020: R{0,20} <= 1
 R021: R{0,21} <= 1
 R022: R{0,22} <= 1
 R023: R{0,23} <= 1
 R024: R{0,24} <= 1
 R025: R{0,25} <= 1
 R026: R{0,26} <= 1
 R027: R{0,27} <= 1
 R028: R{0,28} <= 1
 R029: R{0,29} <= 1
 R030: R{0,30} <= 1
 R031: R{0,31} <= 1
 R032: R{0,32} <= 1
 R033: R{0,33} <= 1
 R034: R{0,34} <= 1
 R035: R{0,35} <= 1
 R036: R{0,36} <= 1
 R037: R{0,37} <= 1
 R038: R{0,38} <= 1
 R039: R{0,39} <= 1
 R040: R{1,0} <= 1
 R041: R{1,1} <= 1
 R042: R{1,2} <= 1
 R043: R{1,3} <= 1
 R044: R{1,4} <= 1
 R045: R{1,5} <= 1
 R046: R{1,6} <= 1
 R047: R{1,7} <= 1
 R048: R{1,8} <= 1
 R049: R{1,9} <= 1
 R050: R{1,10} <= 1
 R051: R{2,0} <= 1
 R052: R{2,1} <= 1
 R053: R{2,2} <= 1
 R054: R{2,3} <= 1
 R055: R{2,4} <= 1
 R056: R{2,5} <= 1
 R057: R{2,6} <= 1
 R058: R{2,7} <= 1
 R059: R{2,8} <= 1
 R060: R{2,9} <= 1
 R061: R{2,10} <= 1
 R062: R{2,11} <= 1
 R063: R{2,12} <= 1
 R064: R{2,13} <= 1
 R065: R{2,14} <= 1
 R066: R{2,15} <= 1
 R067: R{2,16} <= 1
 R068: R{2,17} <= 1
 R069: R{2,18} <= 1
 R070: R{2,19} <= 1
 R071: R{2,20} <= 1
 R072: R{2,21} <= 1
 R073: R{2,22} <= 1
 R074: R{2,23} <= 1
 R075: R{2,24} <= 1
 R076: R{2,25} <= 1
 R077: R{2,26} <= 1
 R078: R{2,27} <= 1
 R079: R{3,0} <= 1
 R080: R{3,1} <= 1
 R081: R{3,2} <= 1
 R082: R{3,3} <= 1
 R083: R{3,4} <= 1
 R084: R{3,5} <= 1
 R085: R{3,6} <= 1
 R086: R{3,7} <= 1
 R087: R{3,8} <= 1
 R088: R{3,9} <= 1
 R089: R{3,10} <= 1
 R090: R{3,11} <= 1
 R091: R{3,12} <= 1
 R092: R{3,13} <= 1
 R093: R{3,14} <= 1
 R094: R{3,15} <= 1
 R095: R{3,16} <= 1
 R096: R{3,17} <= 1
 R097: R{3,18} <= 1
 R098: R{3,19} <= 1
 R099: R{3,20} <= 1
 R0100: R{3,21} <= 1
 R0101: R{3,22} <= 1
 R0102: R{3,23} <= 1
 R0103: R{3,24} <= 1
 R0104: R{3,25} <= 1
 R0105: R{3,26} <= 1
 R0106: R{3,27} <= 1
 R0107: R{3,28} <= 1
 R0108: R{3,29} <= 1
 R0109: R{3,30} <= 1
 R0110: R{3,31} <= 1
 R0111: R{4,0} <= 1
 R0112: R{4,1} <= 1
 R0113: R{4,2} <= 1
 R0114: R{4,3} <= 1
 R0115: R{4,4} <= 1
 R0116: R{4,5} <= 1
 R0117: R{4,6} <= 1
 R0118: R{4,7} <= 1
 R0119: R{4,8} <= 1
 R0120: R{4,9} <= 1
 R0121: R{4,10} <= 1
 R0122: R{4,11} <= 1
 R0123: R{4,12} <= 1
 R0124: R{4,13} <= 1
 R0125: R{4,14} <= 1
 R0126: R{4,15} <= 1
 R0127: R{4,16} <= 1
 R0128: R{4,17} <= 1
 R0129: R{4,18} <= 1
 R0130: R{4,19} <= 1
 R0131: R{4,20} <= 1
 R0132: R{4,21} <= 1
 R0133: R{4,22} <= 1
 R0134: R{4,23} <= 1
 R0135: R{4,24} <= 1
 R0136: R{4,25} <= 1
 R0137: R{4,26} <= 1
 R0138: R{5,0} <= 1
 R0139: R{5,1} <= 1
 R0140: R{5,2} <= 1
 R0141: R{5,3} <= 1
 R0142: R{5,4} <= 1
 R0143: R{5,5} <= 1
 R0144: R{5,6} <= 1
 R0145: R{5,7} <= 1
 R0146: R{5,8} <= 1
 R0147: R{5,9} <= 1
 R0148: R{5,10} <= 1
 R0149: R{5,11} <= 1
 R0150: R{5,12} <= 1
 R0151: R{5,13} <= 1
 R0152: R{5,14} <= 1
 R0153: R{5,15} <= 1
 R0154: R{5,16} <= 1
 R0155: R{5,17} <= 1
 R0156: R{5,18} <= 1
 R0157: R{5,19} <= 1
 R0158: R{5,20} <= 1
 R0159: R{5,21} <= 1
 R0160: R{5,22} <= 1
 R0161: R{5,23} <= 1
 R0162: R{5,24} <= 1
 R0163: R{5,25} <= 1
 R0164: R{5,26} <= 1
 R0165: R{5,27} <= 1
 R0166: R{5,28} <= 1
 R0167: R{5,29} <= 1
 R0168: R{5,30} <= 1
 R0169: R{5,31} <= 1
 R0170: R{5,32} <= 1
 R0171: R{5,33} <= 1
 R0172: R{5,34} <= 1
 R0173: R{5,35} <= 1
 R0174: R{5,36} <= 1
 R0175: R{5,37} <= 1
 R0176: R{5,38} <= 1
 R0177: R{5,39} <= 1
 R0178: R{6,0} <= 1
 R0179: R{6,1} <= 1
 R0180: R{6,2} <= 1
 R0181: R{6,3} <= 1
 R0182: R{6,4} <= 1
 R0183: R{6,5} <= 1
 R0184: R{6,6} <= 1
 R0185: R{6,7} <= 1
 R0186: R{6,8} <= 1
 R0187: R{6,9} <= 1
 R0188: R{6,10} <= 1
 R0189: R{6,11} <= 1
 R0190: R{6,12} <= 1
 R0191: R{6,13} <= 1
 R0192: R{6,14} <= 1
 R0193: R{6,15} <= 1
 R0194: R{6,16} <= 1
 R0195: R{6,17} <= 1
 R0196: R{6,18} <= 1
 R0197: R{6,19} <= 1
 R0198: R{6,20} <= 1
 R0199: R{6,21} <= 1
 R0200: R{6,22} <= 1
 R0201: R{6,23} <= 1
 R0202: R{6,24} <= 1
 R0203: R{6,25} <= 1
 R0204: R{6,26} <= 1
 R0205: R{6,27} <= 1
 R0206: R{6,28} <= 1
 R0207: R{6,29} <= 1
 R0208: R{6,30} <= 1
 R0209: R{6,31} <= 1
 R0210: R{6,32} <= 1
 R0211: R{6,33} <= 1
 R0212: R{6,34} <= 1
 R0213: R{6,35} <= 1
 R1_0: R{0,0} + R{0,1} + R{0,2} + R{0,3} + R{0,4} + R{0,5} + R{0,6}
   + R{0,7} + R{0,8} + R{0,9} + R{0,10} + R{0,11} + R{0,12} + R{0,13}
   + R{0,14} + R{0,15} + R{0,16} + R{0,17} + R{0,18} + R{0,19} + R{0,20}
   + R{0,21} + R{0,22} + R{0,23} + R{0,24} + R{0,25} + R{0,26} + R{0,27}
   + R{0,28} + R{0,29} + R{0,30} + R{0,31} + R{0,32} + R{0,33} + R{0,34}
   + R{0,35} + R{0,36} + R{0,37} + R{0,38} + R{0,39} <= 1
 R1_1: R{1,0} + R{1,1} + R{1,2} + R{1,3} + R{1,4} + R{1,5} + R{1,6}
   + R{1,7} + R{1,8} + R{1,9} + R{1,10} <= 1
 R1_2: R{2,0} + R{2,1} + R{2,2} + R{2,3} + R{2,4} + R{2,5} + R{2,6}
   + R{2,7} + R{2,8} + R{2,9} + R{2,10} + R{2,11} + R{2,12} + R{2,13}
   + R{2,14} + R{2,15} + R{2,16} + R{2,17} + R{2,18} + R{2,19} + R{2,20}
   + R{2,21} + R{2,22} + R{2,23} + R{2,24} + R{2,25} + R{2,26} + R{2,27}
   <= 1
 R1_3: R{3,0} + R{3,1} + R{3,2} + R{3,3} + R{3,4} + R{3,5} + R{3,6}
   + R{3,7} + R{3,8} + R{3,9} + R{3,10} + R{3,11} + R{3,12} + R{3,13}
   + R{3,14} + R{3,15} + R{3,16} + R{3,17} + R{3,18} + R{3,19} + R{3,20}
   + R{3,21} + R{3,22} + R{3,23} + R{3,24} + R{3,25} + R{3,26} + R{3,27}
   + R{3,28} + R{3,29} + R{3,30} + R{3,31} <= 1
 R1_4: R{4,0} + R{4,1} + R{4,2} + R{4,3} + R{4,4} + R{4,5} + R{4,6}
   + R{4,7} + R{4,8} + R{4,9} + R{4,10} + R{4,11} + R{4,12} + R{4,13}
   + R{4,14} + R{4,15} + R{4,16} + R{4,17} + R{4,18} + R{4,19} + R{4,20}
   + R{4,21} + R{4,22} + R{4,23} + R{4,24} + R{4,25} + R{4,26} <= 1
 R1_5: R{5,0} + R{5,1} + R{5,2} + R{5,3} + R{5,4} + R{5,5} + R{5,6}
   + R{5,7} + R{5,8} + R{5,9} + R{5,10} + R{5,11} + R{5,12} + R{5,13}
   + R{5,14} + R{5,15} + R{5,16} + R{5,17} + R{5,18} + R{5,19} + R{5,20}
   + R{5,21} + R{5,22} + R{5,23} + R{5,24} + R{5,25} + R{5,26} + R{5,27}
   + R{5,28} + R{5,29} + R{5,30} + R{5,31} + R{5,32} + R{5,33} + R{5,34}
   + R{5,35} + R{5,36} + R{5,37} + R{5,38} + R{5,39} <= 1
 R1_6: R{6,0} + R{6,1} + R{6,2} + R{6,3} + R{6,4} + R{6,5} + R{6,6}
   + R{6,7} + R{6,8} + R{6,9} + R{6,10} + R{6,11} + R{6,12} + R{6,13}
   + R{6,14} + R{6,15} + R{6,16} + R{6,17} + R{6,18} + R{6,19} + R{6,20}
   + R{6,21} + R{6,22} + R{6,23} + R{6,24} + R{6,25} + R{6,26} + R{6,27}
   + R{6,28} + R{6,29} + R{6,30} + R{6,31} + R{6,32} + R{6,33} + R{6,34}
   + R{6,35} <= 1
 R2_0: 7 R{0,0} + 7 R{0,1} + 7 R{0,2} + 7 R{0,6} + 7 R{0,8} + 7 R{0,9}
   + 7 R{0,10} + 7 R{0,11} + 7 R{0,12} + 7 R{0,14} + 7 R{0,15} + 7 R{0,16}
   + 7 R{0,18} + 7 R{0,19} + 7 R{0,21} + 7 R{0,23} + 7 R{0,25} + 7 R{0,26}
   + 7 R{0,27} + 7 R{0,28} + 7 R{0,29} + 7 R{0,33} + 7 R{0,34} + 7 R{0,35}
   + 7 R{0,36} + 7 R{3,17} + 7 R{3,26} + 7 R{5,37} + 7 R{6,27} <= 7
 R2_1: 10 R{0,35} + 10 R{2,7} + 10 R{2,10} + 10 R{2,18} + 10 R{3,1}
   + 10 R{3,2} + 10 R{3,3} + 10 R{3,5} + 10 R{3,6} + 10 R{3,7} + 10 R{3,8}
   + 10 R{3,9} + 10 R{3,10} + 10 R{3,12} + 10 R{3,13} + 10 R{3,17}
   + 10 R{3,20} + 10 R{3,21} + 10 R{3,25} + 10 R{3,27} + 10 R{3,28}
   + 10 R{3,30} + 10 R{3,31} + 10 R{5,12} + 10 R{5,15} + 10 R{5,36}
   + 10 R{5,38} + 10 R{6,10} + 10 R{6,12} <= 10
 R2_2: <= 0
 R2_3: 4 R{2,9} + 4 R{2,15} + 4 R{5,1} + 4 R{5,2} + 4 R{5,3} + 4 R{5,4}
   + 4 R{5,5} + 4 R{5,6} + 4 R{5,8} + 4 R{5,9} + 4 R{5,10} + 4 R{5,13}
   + 4 R{5,16} + 4 R{5,17} + 4 R{5,19} + 4 R{5,25} + 4 R{5,27} + 4 R{5,30}
   + 4 R{5,34} + 4 R{5,35} + 4 R{5,36} + 4 R{5,39} <= 4
 R2_4: <= 0
 R2_5: 5 R{5,1} + 5 R{5,2} + 5 R{5,3} + 3 R{5,5} + 3 R{5,6} + 3 R{5,7}
   + 3 R{5,8} + 3 R{5,10} + 5 R{5,12} + 5 R{5,13} + 5 R{5,14} + 5 R{5,15}
   + 3 R{5,17} + 5 R{5,18} + 3 R{5,19} + 5 R{5,20} + 3 R{5,24} + 5 R{5,28}
   + 5 R{5,30} + 5 R{5,31} + 3 R{5,33} + 3 R{5,34} <= 5
 R2_6: 10 R{1,1} + 10 R{1,3} + 10 R{2,17} + 10 R{4,18} + 10 R{5,28}
   + 10 R{5,29} + 10 R{6,8} + 10 R{6,24} <= 10
 R2_7: 6 R{1,1} + 6 R{1,2} + 6 R{1,3} + 6 R{1,4} + 6 R{1,5} + 6 R{1,6}
   + 6 R{1,9} <= 6
 R2_8: <= 0
 R2_9: 12 R{4,1} + 12 R{4,2} + 12 R{4,5} + 12 R{4,7} + 12 R{4,10}
   + 12 R{4,11} + 12 R{4,12} + 12 R{4,13} + 12 R{4,14} + 12 R{4,15}
   + 12 R{4,16} + 12 R{4,17} + 12 R{4,19} + 12 R{4,20} + 12 R{4,22}
   + 12 R{4,23} + 12 R{4,24} + 12 R{4,25} + 12 R{4,26} + 12 R{5,29}
   + 12 R{5,34} + 12 R{6,30} <= 12
 R2_10: 8 R{3,24} + 8 R{3,26} + 8 R{3,29} + 8 R{5,38} + 8 R{6,1} + 8 R{6,2}
   + 8 R{6,7} + 8 R{6,10} + 8 R{6,12} + 8 R{6,15} + 8 R{6,20} + 8 R{6,21}
   + 8 R{6,31} + 8 R{6,33} + 8 R{6,35} <= 8
 R2_11: 15 R{0,21} + 15 R{4,8} + 15 R{5,22} + 15 R{5,24} + 15 R{5,34}
   <= 15
 R2_12: <= 0
 R2_13: <= 0
 R2_14: <= 0
 R2_15: 11 R{0,0} + 11 R{0,1} + 11 R{0,2} + 11 R{0,6} + 11 R{0,11}
   + 11 R{0,18} + 11 R{0,27} + 11 R{0,33} + 11 R{0,35} + 11 R{0,36}
   + 11 R{4,1} + 11 R{4,2} + 11 R{4,14} + 11 R{4,16} + 11 R{4,17} <= 11
 R2_16: 5 R{0,11} + 5 R{0,18} + 5 R{0,23} + 5 R{3,5} + 5 R{3,12} + 5 R{4,6}
   + 5 R{5,8} + 5 R{5,29} + 5 R{5,38} + 5 R{6,33} <= 5
 R2_17: 11 R{0,26} + 11 R{0,29} + 11 R{0,36} + 11 R{3,12} + 11 R{5,37}
   <= 11
 R2_18: 5 R{2,19} + 5 R{5,37} <= 5
 R2_19: 11 R{0,6} + 11 R{0,8} + 11 R{0,15} + 11 R{2,5} + 11 R{2,9}
   + 11 R{2,13} + 11 R{2,14} + 11 R{3,10} + 11 R{3,12} + 11 R{3,14}
   + 11 R{4,1} + 11 R{4,2} + 11 R{4,5} + 11 R{4,10} + 11 R{4,14}
   + 11 R{4,16} + 11 R{4,25} + 11 R{5,5} + 11 R{5,8} + 11 R{5,10}
   + 11 R{5,14} + 11 R{5,17} + 11 R{5,19} <= 11
 R2_20: 13 R{0,10} + 13 R{2,3} + 13 R{2,4} + 13 R{2,6} + 13 R{2,8}
   + 13 R{2,25} + 13 R{3,2} + 13 R{3,3} + 13 R{3,5} + 13 R{3,9} + 4 R{3,10}
   + 13 R{3,11} + 4 R{3,12} + 13 R{3,13} + 4 R{3,14} + 13 R{3,15}
   + 13 R{3,16} + 13 R{3,17} + 13 R{3,19} + 13 R{3,20} + 13 R{3,21}
   + 13 R{3,27} + 13 R{3,28} + 13 R{3,31} + 13 R{5,11} + 13 R{5,18}
   + 13 R{5,20} + 13 R{5,22} + 13 R{5,23} + 13 R{5,33} + 13 R{6,1}
   + 13 R{6,2} + 13 R{6,3} + 13 R{6,5} + 13 R{6,6} + 13 R{6,7} + 13 R{6,9}
   + 13 R{6,14} + 13 R{6,16} + 13 R{6,17} + 13 R{6,19} + 13 R{6,22}
   + 8 R{6,25} + 13 R{6,30} + 13 R{6,34} + 13 R{6,35} <= 13
 R2_21: <= 0
 R2_22: 10 R{0,18} + 10 R{0,21} + 10 R{0,23} + 10 R{3,13} + 10 R{3,20}
   + 10 R{3,28} + 10 R{3,31} + 10 R{4,9} + 10 R{4,13} <= 10
 R2_23: 14 R{3,6} + 14 R{4,3} + 14 R{4,9} + 14 R{5,5} + 14 R{5,8}
   + 14 R{5,10} + 14 R{5,17} + 14 R{5,19} + 14 R{6,3} + 14 R{6,9}
   + 14 R{6,14} + 14 R{6,17} + 14 R{6,18} + 14 R{6,19} <= 14
 R2_24: <= 10
 R2_25: 13 R{0,0} + 13 R{0,1} + 13 R{0,2} + 13 R{0,6} + 13 R{0,8}
   + 13 R{0,9} + 13 R{0,10} + 13 R{0,11} + 13 R{0,12} + 13 R{0,14}
   + 13 R{0,15} + 13 R{0,16} + 13 R{0,18} + 13 R{0,19} + 13 R{0,23}
   + 13 R{0,25} + 13 R{0,27} + 13 R{0,28} + 13 R{0,33} + 13 R{0,35}
   + 13 R{3,16} + 13 R{3,22} + 13 R{3,24} + 13 R{3,27} + 13 R{4,1}
   + 13 R{4,2} + 13 R{4,5} + 13 R{4,10} + 13 R{4,11} + 13 R{4,12}
   + 13 R{4,14} + 13 R{4,15} + 13 R{4,16} + 13 R{4,17} + 13 R{4,19}
   + 13 R{4,20} + 13 R{4,22} + 13 R{4,23} + 13 R{4,24} + 13 R{4,25}
   + 13 R{4,26} + 13 R{5,32} <= 13
 R2_26: 6 R{0,17} + 6 R{0,20} + 6 R{0,24} + 6 R{0,32} + 6 R{0,38}
   + 6 R{0,39} + 6 R{2,10} + 6 R{2,11} + 6 R{2,12} + 6 R{2,15} + 6 R{2,16}
   + 6 R{2,18} + 6 R{2,22} + 6 R{2,26} + 6 R{3,19} + 6 R{3,22} + 6 R{3,24}
   + 6 R{3,26} + 6 R{3,29} + 6 R{5,1} + 6 R{5,2} + 6 R{5,3} + 6 R{5,4}
   + 6 R{5,7} + 6 R{5,9} + 6 R{5,12} + 6 R{5,13} + 6 R{5,15} + 6 R{5,16}
   + 6 R{5,18} + 6 R{5,20} + 6 R{5,21} + 6 R{5,24} + 6 R{5,25} + 6 R{5,26}
   + 6 R{5,27} + 6 R{5,28} + 6 R{5,30} + 6 R{5,31} + 6 R{5,32} + 6 R{5,33}
   + 6 R{5,34} + 6 R{5,35} + 6 R{5,39} <= 6
 R2_27: 5 R{0,8} + 5 R{0,10} + 5 R{0,23} + 5 R{0,25} + 5 R{0,29} + 5 R{1,8}
   + 5 R{1,10} + 5 R{2,6} + 5 R{2,9} + 5 R{2,11} + 5 R{2,15} + 5 R{2,20}
   + 5 R{2,22} + 5 R{2,24} + 5 R{2,25} + 5 R{2,27} + 5 R{3,10} + 5 R{3,11}
   + 5 R{3,14} + 5 R{3,16} + 5 R{3,18} + 5 R{3,23} + 5 R{4,11} + 5 R{4,12}
   + 5 R{4,14} + 5 R{4,16} + 5 R{4,24} + 5 R{5,2} + 5 R{5,3} + 5 R{5,4}
   + 5 R{5,5} + 5 R{5,7} + 5 R{5,12} + 5 R{5,14} + 5 R{5,16} + 5 R{5,18}
   + 5 R{5,20} + 5 R{5,24} + 5 R{5,28} + 5 R{5,30} + 5 R{5,31} + 5 R{5,33}
   + 5 R{5,36} + 5 R{5,38} + 5 R{5,39} + 5 R{6,1} + 5 R{6,2} + 5 R{6,3}
   + 5 R{6,4} + 5 R{6,5} + 5 R{6,6} + 5 R{6,7} + 5 R{6,8} + 5 R{6,9}
   + 5 R{6,10} + 5 R{6,11} + 5 R{6,12} + 5 R{6,13} + 5 R{6,14} + 5 R{6,15}
   + 5 R{6,16} + 5 R{6,17} + 5 R{6,18} + 5 R{6,19} + 5 R{6,20} + 5 R{6,21}
   + 5 R{6,22} + 5 R{6,23} + 5 R{6,24} + 5 R{6,25} + 5 R{6,26} + 5 R{6,27}
   + 5 R{6,30} + 5 R{6,31} + 5 R{6,32} + 5 R{6,34} + 5 R{6,35} <= 5
 R2_28: <= 0
 R2_29: <= 0
 R2_30: <= 0
 R2_31: <= 0
 R2_32: 7 R{0,4} + 7 R{0,5} + 7 R{0,7} + 7 R{0,13} + 7 R{0,20} + 7 R{0,22}
   + 7 R{0,30} + 7 R{0,31} + 7 R{0,37} + 7 R{0,38} + 7 R{2,16} + 7 R{2,17}
   + 7 R{2,26} + 7 R{5,13} + 7 R{5,14} + 7 R{5,29} + 7 R{5,31} + 7 R{5,34}
   + 7 R{5,35} + 7 R{5,37} + 7 R{5,38} <= 7
 R2_33: 12 R{1,5} + 12 R{1,7} + 12 R{1,8} + 12 R{1,10} + 12 R{3,4}
   + 12 R{4,18} + 12 R{5,5} + 12 R{5,6} + 12 R{5,8} + 12 R{5,10}
   + 12 R{5,11} + 12 R{5,13} + 12 R{5,17} + 12 R{5,19} + 12 R{5,21}
   + 12 R{5,22} + 12 R{5,23} + 12 R{5,24} + 12 R{5,29} + 12 R{5,34}
   + 12 R{5,35} + 12 R{5,38} <= 12
 R2_34: <= 5
 R2_35: 13 R{4,3} + 13 R{4,4} + 13 R{4,21} <= 13
 R2_36: 15 R{5,1} + 15 R{5,2} + 15 R{5,3} + 15 R{5,4} + 15 R{5,5}
   + 15 R{5,6} + 15 R{5,7} + 15 R{5,8} + 15 R{5,9} + 15 R{5,10}
   + 15 R{5,11} + 15 R{5,12} + 15 R{5,13} + 15 R{5,16} + 15 R{5,18}
   + 15 R{5,20} + 15 R{5,21} + 15 R{5,22} + 15 R{5,23} + 15 R{5,24}
   + 15 R{5,25} + 15 R{5,27} + 15 R{5,28} + 15 R{5,30} + 15 R{5,32}
   + 15 R{5,33} + 15 R{5,35} + 15 R{5,36} + 15 R{5,39} <= 16
 R2_37: <= 5
 R2_38: <= 0
 R2_39: 15 R{0,0} + 15 R{0,1} + 15 R{0,2} + 15 R{0,6} + 15 R{0,9}
   + 15 R{0,12} + 15 R{0,14} + 15 R{0,26} + 15 R{0,27} + 15 R{0,28}
   + 15 R{0,29} + 15 R{0,33} + 15 R{0,35} + 15 R{0,36} <= 17
 R2_40: 15 R{2,1} + 15 R{2,2} + 15 R{2,3} + 15 R{2,4} + 15 R{2,5}
   + 15 R{2,7} + 15 R{2,8} + 15 R{2,10} + 15 R{2,12} + 15 R{2,13}
   + 15 R{2,14} + 15 R{2,16} + 15 R{2,17} + 15 R{2,18} + 15 R{2,19}
   + 15 R{2,21} + 15 R{2,23} + 15 R{2,26} + 15 R{5,16} + 15 R{5,27}
   + 8 R{5,33} <= 15
 R2_41: 5 R{0,0} + 5 R{0,1} + 5 R{0,2} + 5 R{0,8} + 5 R{0,9} + 5 R{0,10}
   + 5 R{0,12} + 5 R{0,14} + 5 R{0,16} + 5 R{0,19} + 5 R{0,25} + 5 R{0,26}
   + 5 R{0,28} + 5 R{0,29} + 5 R{0,34} + 5 R{0,35} + 5 R{0,36} + 5 R{2,9}
   + 5 R{2,11} + 5 R{3,2} + 5 R{3,3} + 5 R{3,6} + 5 R{3,10} + 5 R{3,11}
   + 5 R{3,14} + 5 R{3,15} + 5 R{3,17} + 5 R{3,19} + 5 R{3,21} + 5 R{3,26}
   + 5 R{3,29} + 5 R{3,30} + 5 R{4,21} + 5 R{5,7} + 5 R{5,20} + 5 R{5,33}
   + 5 R{6,9} + 5 R{6,11} + 5 R{6,13} + 5 R{6,14} + 5 R{6,17} + 5 R{6,18}
   + 5 R{6,19} <= 5
 R2_42: 4 R{2,1} + 4 R{2,2} + 4 R{2,3} + 4 R{2,4} + 4 R{2,5} + 4 R{2,6}
   + 4 R{2,7} + 4 R{2,8} + 4 R{2,9} + 4 R{2,11} + 4 R{2,13} + 4 R{2,15}
   + 4 R{2,17} + 4 R{2,20} + 4 R{2,22} + 4 R{2,27} <= 4
 R2_43: <= 0
 R2_44: <= 0
 R2_45: <= 0
 R2_46: 9 R{0,8} + 9 R{0,10} + 9 R{0,15} + 9 R{0,16} + 9 R{0,19}
   + 9 R{0,34} + 9 R{3,5} + 9 R{3,12} + 9 R{3,17} + 9 R{3,22} + 9 R{3,24}
   + 9 R{3,26} + 9 R{3,29} + 9 R{4,4} + 9 R{4,7} + 9 R{4,18} + 5 R{4,20}
   + 9 R{4,21} + 9 R{4,23} + 9 R{5,6} + 9 R{5,8} + 9 R{5,11} + 9 R{5,19}
   + 9 R{5,22} + 9 R{5,29} + 9 R{5,38} <= 9
 R2_47: 7 R{0,0} + 7 R{0,1} + 7 R{0,2} + 7 R{0,35} + 7 R{5,1} + 7 R{5,2}
   + 7 R{5,3} + 7 R{5,4} + 7 R{5,5} + 7 R{5,7} + 7 R{5,9} + 7 R{5,10}
   + 7 R{5,14} + 7 R{5,17} + 7 R{5,30} + 7 R{5,31} + 7 R{5,34} + 7 R{5,36}
   + 7 R{5,39} <= 7
 R2_48: 4 R{0,23} + 4 R{3,17} + 4 R{3,19} + 4 R{3,24} + 4 R{3,26}
   + 4 R{3,29} + 4 R{4,1} + 4 R{4,2} + 4 R{4,5} + 4 R{4,10} + 4 R{4,11}
   + 4 R{4,13} + 4 R{4,14} + 4 R{4,15} + 4 R{4,16} + 4 R{4,17} + 4 R{4,19}
   + 4 R{4,22} + 4 R{4,25} <= 4
 R2_49: <= 0
 R2_50: <= 0
 R2_51: 11 R{1,3} + 11 R{4,1} + 10 R{5,22} + 11 R{5,30} <= 11
 R2_52: 10 R{4,3} + 10 R{4,4} + 10 R{4,5} + 10 R{4,6} + 10 R{4,7}
   + 10 R{4,8} + 10 R{4,9} + 10 R{4,11} + 10 R{4,12} + 10 R{4,13}
   + 10 R{4,15} + 10 R{4,18} + 10 R{4,19} + 10 R{4,20} + 10 R{4,21}
   + 10 R{4,22} + 10 R{4,23} + 10 R{4,24} + 10 R{4,25} + 10 R{4,26} <= 10
 R2_53: 13 R{4,1} + 13 R{4,2} + 13 R{4,5} + 13 R{4,10} + 13 R{4,11}
   + 13 R{4,25} <= 13
 R2_54: 9 R{3,1} + 9 R{3,2} + 9 R{3,3} + 9 R{3,4} + 9 R{3,6} + 9 R{3,7}
   + 9 R{3,8} + 9 R{3,9} + 9 R{3,13} + 9 R{3,17} + 9 R{3,19} + 9 R{3,20}
   + 9 R{3,21} + 9 R{3,22} + 9 R{3,24} + 9 R{3,26} + 9 R{3,27} + 9 R{3,28}
   + 9 R{3,29} + 9 R{3,30} + 9 R{3,31} + 9 R{6,28} + 9 R{6,29} <= 9
 R2_55: 8 R{1,9} + 8 R{3,20} + 8 R{3,28} + 8 R{6,1} + 8 R{6,2} + 8 R{6,3}
   + 8 R{6,4} + 8 R{6,7} + 8 R{6,8} + 8 R{6,9} + 8 R{6,10} + 8 R{6,12}
   + 8 R{6,13} + 8 R{6,14} + 8 R{6,15} + 8 R{6,16} + 8 R{6,17} + 8 R{6,18}
   + 8 R{6,19} + 8 R{6,20} + 8 R{6,21} + 8 R{6,23} + 8 R{6,24} + 8 R{6,26}
   + 8 R{6,27} + 8 R{6,28} + 8 R{6,29} + 8 R{6,30} + 8 R{6,31} + 8 R{6,32}
   + 8 R{6,34} + 8 R{6,35} <= 8
 R2_56: 6 R{0,1} + 6 R{0,2} + 6 R{0,6} + 6 R{0,8} + 6 R{0,10} + 6 R{0,11}
   + 6 R{0,14} + 6 R{0,15} + 6 R{0,16} + 6 R{0,18} + 6 R{0,21} + 6 R{0,26}
   + 6 R{0,28} + 6 R{0,35} + 6 R{1,7} + 6 R{1,10} + 6 R{3,2} + 6 R{3,3}
   + 6 R{3,6} + 6 R{3,9} + 6 R{3,10} + 6 R{3,11} + 6 R{3,12} + 6 R{3,13}
   + 6 R{3,14} + 6 R{3,15} + 6 R{3,16} + 6 R{3,17} + 6 R{3,19} + 6 R{3,20}
   + 6 R{3,21} + 6 R{3,22} + 6 R{3,24} + 6 R{3,27} + 6 R{3,29} + 6 R{3,31}
   + 6 R{4,13} + 6 R{4,15} + 6 R{4,17} + 6 R{4,18} + 6 R{4,19} + 6 R{4,20}
   + 6 R{4,22} + 6 R{4,23} + 6 R{4,24} + 6 R{4,26} + 6 R{5,29} + 6 R{5,34}
   + 6 R{5,38} + 6 R{6,4} + 6 R{6,7} + 6 R{6,13} + 6 R{6,16} + 6 R{6,17}
   + 6 R{6,22} + 6 R{6,26} + 6 R{6,28} + 6 R{6,29} + 6 R{6,30} + 6 R{6,32}
   + 6 R{6,34} <= 6
 R2_57: <= 0
 R2_58: 15 R{4,8} + 15 R{5,22} + 15 R{6,28} + 9 R{6,29} <= 15
 R2_59: 10 R{3,5} + 9 R{3,12} + 10 R{4,3} + 10 R{4,4} + 10 R{4,7}
   + 10 R{4,12} + 10 R{4,14} + 10 R{4,16} + 9 R{4,23} + 10 R{5,5}
   + 10 R{5,6} + 3 R{5,8} + 10 R{5,11} + 10 R{5,17} + 10 R{5,19}
   + 10 R{5,21} + 3 R{5,22} + 10 R{5,23} + 10 R{5,24} + 10 R{6,20}
   + 10 R{6,21} + 10 R{6,23} + 10 R{6,24} + 10 R{6,25} + 10 R{6,33} <= 10
 R2_60: <= 0
 R2_61: 9 R{3,5} + 9 R{3,9} + 9 R{3,13} + 9 R{3,31} + 9 R{4,3} + 9 R{4,4}
   + 9 R{4,9} + 9 R{4,18} + 9 R{4,21} + 9 R{5,5} + 9 R{5,6} + 9 R{5,8}
   + 9 R{5,10} + 9 R{5,11} + 9 R{5,17} + 9 R{5,19} + 9 R{5,24} + 9 R{6,14}
   + 9 R{6,19} <= 9
 R2_62: <= 0
 R2_63: <= 0
 R2_64: <= 0
 R2_65: 5 R{0,9} + 5 R{0,12} + 5 R{0,19} + 5 R{0,34} + 5 R{5,23} + 5 R{6,1}
   + 5 R{6,2} + 5 R{6,3} + 5 R{6,4} + 5 R{6,5} + 5 R{6,6} + 5 R{6,7}
   + 5 R{6,8} + 5 R{6,9} + 5 R{6,10} + 5 R{6,11} + 5 R{6,12} + 5 R{6,13}
   + 5 R{6,14} + 5 R{6,15} + 5 R{6,16} + 5 R{6,18} + 5 R{6,20} + 5 R{6,21}
   + 5 R{6,22} + 5 R{6,23} + 5 R{6,24} + 5 R{6,26} + 5 R{6,28} + 5 R{6,29}
   + 5 R{6,30} + 5 R{6,31} + 5 R{6,33} + 5 R{6,34} + 5 R{6,35} <= 5
 R2_66: 7 R{3,23} + 7 R{4,16} + 7 R{5,26} + 7 R{6,1} + 7 R{6,2} + 7 R{6,3}
   + 7 R{6,4} + 7 R{6,5} + 7 R{6,7} + 7 R{6,8} + 7 R{6,9} + 7 R{6,10}
   + 7 R{6,11} + 7 R{6,13} + 7 R{6,14} + 7 R{6,16} + 7 R{6,17} + 7 R{6,19}
   + 7 R{6,20} + 7 R{6,21} + 7 R{6,22} + 7 R{6,24} + 7 R{6,25} + 7 R{6,26}
   + 7 R{6,27} + 7 R{6,28} + 7 R{6,29} + 7 R{6,30} + 7 R{6,31} + 7 R{6,33}
   + 7 R{6,34} + 7 R{6,35} <= 7
 R2_67: 3 R{0,8} + 3 R{0,10} + 3 R{3,2} + 3 R{3,3} + 3 R{3,6} + 3 R{3,10}
   + 3 R{3,11} + 3 R{3,12} + 3 R{3,14} + 3 R{3,15} + 3 R{3,16} + 3 R{3,17}
   + 3 R{3,19} + 3 R{3,21} + 3 R{3,22} + 3 R{3,24} + 3 R{3,26} + 3 R{3,27}
   + 3 R{3,29} + 3 R{5,37} + 3 R{5,38} + 3 R{6,5} + 3 R{6,6} + 3 R{6,8}
   + 3 R{6,11} + 3 R{6,24} + 3 R{6,27} + 3 R{6,33} + 3 R{6,34} <= 3
 R2_68: 6 R{2,19} + 6 R{6,1} + 6 R{6,2} + 6 R{6,3} + 6 R{6,4} + 6 R{6,5}
   + 6 R{6,6} + 6 R{6,7} + 6 R{6,8} + 6 R{6,9} + 6 R{6,10} + 6 R{6,11}
   + 6 R{6,14} + 6 R{6,15} + 6 R{6,16} + 6 R{6,17} + 6 R{6,18} + 6 R{6,19}
   + 6 R{6,20} + 6 R{6,22} + 6 R{6,24} + 6 R{6,25} + 6 R{6,26} + 6 R{6,27}
   + 6 R{6,28} + 6 R{6,29} + 6 R{6,30} + 6 R{6,31} + 6 R{6,33} + 6 R{6,34}
   + 6 R{6,35} <= 6
 R2_69: 7 R{0,0} + 7 R{0,1} + 7 R{0,2} + 7 R{0,6} + 7 R{0,9} + 7 R{0,12}
   + 7 R{0,14} + 7 R{0,15} + 7 R{0,16} + 7 R{0,26} + 7 R{0,27} + 7 R{0,35}
   + 7 R{0,36} + 7 R{1,4} + 7 R{1,5} + 7 R{1,7} + 7 R{1,8} + 7 R{3,15}
   + 7 R{4,1} + 7 R{4,2} + 7 R{4,5} + 7 R{4,10} + 7 R{4,14} + 7 R{4,15}
   + 7 R{4,17} + 7 R{4,22} + 7 R{4,25} + 7 R{4,26} + 7 R{5,4} + 7 R{5,16}
   + 7 R{5,25} <= 7
 R2_70: 11 R{1,1} + 11 R{1,2} + 11 R{1,6} <= 11
 R2_71: 7 R{3,1} + 7 R{3,2} + 7 R{3,3} + 7 R{3,4} + 7 R{3,5} + 7 R{3,7}
   + 7 R{3,8} + 7 R{3,9} + 7 R{3,10} + 7 R{3,11} + 7 R{3,12} + 7 R{3,13}
   + 7 R{3,16} + 7 R{3,18} + 7 R{3,21} + 7 R{3,23} + 7 R{3,27} + 7 R{3,28}
   + 7 R{3,30} + 7 R{3,31} + 7 R{5,29} + 7 R{5,37} + 7 R{6,33} <= 7
 R2_72: <= 0
 R2_73: 11 R{0,0} + 11 R{0,1} + 11 R{0,2} + 11 R{0,6} + 11 R{0,9}
   + 11 R{0,11} + 11 R{0,12} + 11 R{0,14} + 11 R{0,15} + 11 R{0,16}
   + 11 R{0,18} + 11 R{0,19} + 11 R{0,21} + 11 R{0,23} + 11 R{0,25}
   + 11 R{0,26} + 11 R{0,27} + 11 R{0,28} + 11 R{0,29} + 11 R{0,33}
   + 11 R{0,34} + 11 R{0,35} + 11 R{0,36} <= 11
 R2_74: 5 R{5,1} + 5 R{5,2} + 5 R{5,3} + 5 R{5,5} + 5 R{5,6} + 5 R{5,7}
   + 5 R{5,8} + 5 R{5,9} + 5 R{5,10} + 5 R{5,11} + 5 R{5,12} + 5 R{5,14}
   + 5 R{5,15} + 5 R{5,17} + 5 R{5,18} + 5 R{5,19} + 5 R{5,20} + 5 R{5,21}
   + 5 R{5,22} + 5 R{5,23} + 5 R{5,24} + 5 R{5,28} + 5 R{5,29} + 5 R{5,30}
   + 5 R{5,31} + 5 R{5,32} + 5 R{5,33} + 5 R{5,34} + 5 R{5,36} + 5 R{5,39}
   <= 5
 R2_75: 8 R{6,1} + 8 R{6,2} + 8 R{6,3} + 8 R{6,4} + 8 R{6,5} + 8 R{6,6}
   + 8 R{6,8} + 8 R{6,10} + 8 R{6,12} + 8 R{6,15} + 8 R{6,16} + 8 R{6,20}
   + 8 R{6,22} + 8 R{6,25} + 8 R{6,26} + 8 R{6,27} + 8 R{6,31} + 8 R{6,35}
   <= 8
 R2_76: 12 R{0,4} + 12 R{0,5} + 12 R{0,7} + 12 R{0,13} + 12 R{0,17}
   + 12 R{0,20} + 12 R{0,30} + 12 R{0,31} + 12 R{0,32} + 12 R{0,38}
   + 12 R{3,3} + 12 R{3,5} + 12 R{3,6} + 12 R{3,9} + 12 R{3,10}
   + 12 R{3,11} + 12 R{3,12} + 12 R{3,14} + 12 R{3,15} + 12 R{3,16}
   + 12 R{3,17} + 12 R{3,19} + 12 R{3,22} + 12 R{3,24} + 12 R{3,26}
   + 12 R{3,27} + 12 R{3,29} + 12 R{5,14} + 12 R{5,15} + 12 R{5,17}
   + 12 R{5,19} + 12 R{5,26} <= 12
 R2_77: 7 R{0,1} + 7 R{0,2} + 7 R{0,5} + 7 R{0,6} + 7 R{0,7} + 7 R{0,8}
   + 7 R{0,11} + 7 R{0,13} + 7 R{0,15} + 7 R{0,17} + 7 R{0,20} + 7 R{0,22}
   + 7 R{0,24} + 7 R{0,30} + 7 R{0,33} + 7 R{0,35} + 7 R{0,37} + 7 R{0,39}
   + 7 R{1,2} + 7 R{1,6} + 7 R{1,7} + 7 R{1,9} + 7 R{1,10} + 7 R{2,2}
   + 7 R{2,3} + 7 R{2,4} + 7 R{2,5} + 7 R{2,7} + 7 R{2,8} + 7 R{2,10}
   + 7 R{2,12} + 7 R{2,13} + 7 R{2,14} + 7 R{2,16} + 7 R{2,17} + 7 R{2,19}
   + 7 R{2,21} + 7 R{2,23} + 7 R{2,24} + 7 R{3,14} + 7 R{3,17} + 7 R{3,19}
   + 7 R{3,20} + 7 R{3,22} + 7 R{3,24} + 7 R{3,25} + 7 R{3,26} + 7 R{3,29}
   + 7 R{4,2} + 7 R{4,17} + 7 R{4,18} + 7 R{4,20} + 7 R{5,2} + 7 R{5,3}
   + 7 R{5,5} + 7 R{5,6} + 7 R{5,7} + 7 R{5,8} + 7 R{5,10} + 7 R{5,11}
   + 7 R{5,12} + 7 R{5,13} + 7 R{5,15} + 7 R{5,17} + 7 R{5,18} + 7 R{5,19}
   + 7 R{5,21} + 7 R{5,23} + 7 R{5,24} + 7 R{5,25} + 7 R{5,26} + 7 R{5,27}
   + 7 R{5,29} + 7 R{5,32} + 7 R{5,33} + 7 R{5,34} + 7 R{5,35} + 7 R{5,36}
   + 7 R{5,38} + 7 R{5,39} + 7 R{6,2} + 7 R{6,3} + 7 R{6,7} + 7 R{6,8}
   + 7 R{6,12} + 7 R{6,15} + 7 R{6,18} + 7 R{6,20} + 7 R{6,23} + 7 R{6,26}
   + 7 R{6,28} + 7 R{6,30} + 7 R{6,32} + 7 R{6,34} + 7 R{6,35} <= 7
Bounds
End
